p cnf 4 768
-4 -3  2  1  0
-4 -3  2 -1  0
-4  3  2 -1  0
 4 -3 -2  1  0
-4  3  2  1  0
 4 -3 -2 -1  0
-4 -3  2  1  0
 4 -3 -2  1  0
-4 -3 -2  1  0
-4 -3  2  1  0
-4 -3  2 -1  0
-4  3  2 -1  0
-4 -3  2  1  0
 4 -3 -2  1  0
-4 -3 -2  1  0
-4 -3  2 -1  0
-4  3  2 -1  0
-4 -3 -2  1  0
 4 -3 -2 -1  0
-4  3  2 -1  0
-4 -3  2 -1  0
-4  3 -2  1  0
 4 -3 -2  1  0
-4 -3 -2  1  0
-4 -3  2  1  0
-4 -3  2 -1  0
-4  3  2 -1  0
-4 -3  2  1  0
 4 -3 -2 -1  0
-4 -3 -2  1  0
-4  3  2  1  0
-4  3  2 -1  0
-4 -3  2 -1  0
-4 -3  2 -1  0
-4 -3  2  1  0
-4  3 -2  1  0
 4 -3 -2 -1  0
-4  3  2 -1  0
-4 -3  2  1  0
-4  3  2 -1  0
-4 -3 -2  1  0
-4 -3  2  1  0
-4  3 -2  1  0
 4 -3 -2 -1  0
-4  3  2 -1  0
-4 -3  2  1  0
-4 -3  2 -1  0
-4  3  2 -1  0
-4  3 -2  1  0
-4  3  2 -1  0
-4 -3  2 -1  0
 4 -3 -2 -1  0
 4 -3 -2  1  0
-4 -3  2  1  0
-4 -3  2 -1  0
-4 -3  2  1  0
-4  3 -2  1  0
 4 -3 -2 -1  0
-4  3  2 -1  0
-4 -3  2  1  0
-4 -3  2 -1  0
-4  3 -2 -1  0
 4 -3 -2  1  0
-4 -3  2 -1  0
-4  3 -2  1  0
-4 -3  2  1  0
-4 -3 -2  1  0
-4  3 -2 -1  0
-4 -3  2  1  0
-4 -3  2 -1  0
-4  3  2 -1  0
-4  3  2 -1  0
-4 -3 -2  1  0
-4  3 -2 -1  0
-4 -3  2  1  0
-4 -3  2 -1  0
-4  3  2 -1  0
-4 -3 -2  1  0
 4 -3 -2 -1  0
 4 -3 -2  1  0
-4  3  2 -1  0
-4 -3 -2  1  0
-4  3 -2 -1  0
-4 -3  2  1  0
-4  3 -2  1  0
-4 -3 -2  1  0
-4  3  2  1  0
 4 -3 -2 -1  0
-4 -3  2  1  0
-4 -3 -2  1  0
 4 -3 -2  1  0
-4 -3  2  1  0
-4  3 -2  1  0
-4 -3 -2  1  0
-4 -3  2  1  0
 4 -3 -2  1  0
-4 -3 -2  1  0
 4 -3 -2  1  0
-4 -3  2  1  0
-4  3 -2  1  0
-4 -3 -2  1  0
-4 -3  2  1  0
-4 -3 -2  1  0
 4 -3 -2 -1  0
-4  3  2 -1  0
-4 -3  2 -1  0
-4  3 -2  1  0
-4 -3  2  1  0
 4 -3 -2  1  0
-4 -3 -2  1  0
 4 -3 -2  1  0
-4  3 -2  1  0
-4 -3 -2  1  0
 4 -3 -2 -1  0
-4 -3 -2  1  0
-4  3  2  1  0
-4  3  2 -1  0
-4 -3  2 -1  0
-4 -3  2 -1  0
-4  3 -2  1  0
 4 -3 -2 -1  0
-4  3  2 -1  0
 4 -3 -2  1  0
-4 -3  2  1  0
-4  3 -2  1  0
-4 -3 -2  1  0
-4 -3  2 -1  0
-4 -3 -2  1  0
-4 -3  2 -1  0
-4 -3  2  1  0
-4  3 -2  1  0
 4 -3 -2 -1  0
-4  3  2 -1  0
 4 -3 -2  1  0
-4 -3  2  1  0
-4 -3 -2  1  0
-4  3  2 -1  0
-4 -3  2 -1  0
 4 -3 -2 -1  0
 4 -3 -2  1  0
-4 -3  2  1  0
-4 -3  2 -1  0
-4 -3  2  1  0
 4 -3 -2 -1  0
-4  3  2 -1  0
 4 -3 -2  1  0
-4 -3  2  1  0
-4  3 -2  1  0
-4 -3 -2  1  0
-4  3  2 -1  0
-4  3 -2 -1  0
 4 -3 -2  1  0
-4 -3  2 -1  0
-4  3 -2  1  0
-4 -3  2  1  0
-4  3  2 -1  0
-4 -3 -2  1  0
-4  3 -2 -1  0
 4 -3 -2  1  0
-4 -3  2  1  0
-4  3 -2  1  0
-4 -3 -2  1  0
-4  3  2 -1  0
-4 -3 -2  1  0
-4  3 -2 -1  0
 4 -3 -2  1  0
-4 -3  2  1  0
-4  3 -2  1  0
 4 -3 -2 -1  0
 4 -3 -2  1  0
-4  3  2 -1  0
-4  3 -2 -1  0
-4 -3 -2  1  0
 4 -3 -2 -1  0
-4  3  2 -1  0
-4  3 -2 -1  0
 4 -3 -2  1  0
-4  3  2  1  0
 4 -3 -2 -1  0
-4 -3  2  1  0
 4 -3 -2  1  0
-4 -3 -2  1  0
-4 -3 -2  1  0
 4 -3 -2 -1  0
-4  3  2 -1  0
-4  3 -2 -1  0
-4 -3  2  1  0
 4 -3 -2  1  0
-4 -3 -2  1  0
 4 -3 -2 -1  0
-4  3  2 -1  0
-4  3 -2 -1  0
-4 -3  2  1  0
 4 -3 -2 -1  0
-4  3  2 -1  0
-4 -3  2 -1  0
-4  3 -2  1  0
-4 -3  2  1  0
 4 -3 -2  1  0
-4 -3 -2  1  0
-4  3  2 -1  0
-4  3 -2 -1  0
-4 -3  2  1  0
-4 -3 -2  1  0
-4  3  2  1  0
-4  3  2 -1  0
-4 -3  2 -1  0
-4 -3  2 -1  0
-4 -3  2  1  0
-4  3 -2  1  0
-4  3  2 -1  0
-4 -3 -2  1  0
 4 -3 -2 -1  0
-4  3  2 -1  0
-4  3 -2 -1  0
-4 -3  2 -1  0
-4 -3 -2  1  0
-4 -3  2 -1  0
-4 -3  2  1  0
-4  3 -2  1  0
 4 -3 -2 -1  0
-4  3  2 -1  0
-4 -3 -2  1  0
 4 -3 -2 -1  0
-4  3 -2 -1  0
-4  3 -2  1  0
-4 -3  2 -1  0
 4 -3 -2 -1  0
 4 -3 -2  1  0
-4 -3  2  1  0
-4 -3  2 -1  0
-4 -3  2  1  0
-4  3 -2  1  0
 4 -3 -2 -1  0
-4 -3 -2  1  0
 4 -3 -2 -1  0
-4  3  2 -1  0
-4  3  2 -1  0
 4 -3 -2  1  0
-4 -3  2 -1  0
-4  3 -2  1  0
-4 -3  2  1  0
-4  3  2 -1  0
-4 -3 -2  1  0
-4 -3 -2  1  0
 4 -3 -2 -1  0
-4  3  2 -1  0
-4  3 -2 -1  0
-4  3  2 -1  0
-4 -3 -2  1  0
-4  3 -2 -1  0
-4 -3 -2  1  0
 4 -3 -2 -1  0
-4  3  2 -1  0
-4  3 -2 -1  0
-4 -3 -2  1  0
 4 -3 -2 -1  0
 4 -3 -2  1  0
-4  3  2 -1  0
-4 -3 -2  1  0
-4  3 -2 -1  0
 4 -3 -2 -1  0
-4 -3 -2  1  0
-4 -3  2 -1  0
 4 -3 -2  1  0
 4 -3 -2  1  0
-4  3  2  1  0
 4 -3 -2 -1  0
 4 -3 -2 -1  0
-4  3  2  1  0
-4  3  2 -1  0
 4 -3 -2 -1  0
-4 -3 -2  1  0
-4 -3  2 -1  0
 4 -3 -2  1  0
 4 -3 -2 -1  0
-4  3  2  1  0
-4  3  2 -1  0
-4 -3 -2  1  0
-4 -3  2 -1  0
 4 -3 -2  1  0
-4 -3  2  1  0
-4 -3 -2  1  0
-4  3  2 -1  0
-4 -3  2 -1  0
-4  3 -2  1  0
-4  3  2  1  0
-4  3  2 -1  0
 4 -3 -2 -1  0
-4 -3  2 -1  0
 4 -3 -2  1  0
-4 -3  2  1  0
 4 -3 -2 -1  0
-4  3  2  1  0
-4  3  2 -1  0
-4 -3  2 -1  0
-4 -3  2 -1  0
-4  3  2  1  0
 4 -3 -2 -1  0
 4 -3 -2 -1  0
-4 -3 -2  1  0
-4 -3  2 -1  0
 4 -3 -2  1  0
-4 -3  2 -1  0
-4 -3 -2  1  0
-4 -3 -2  1  0
-4 -3  2 -1  0
-4  3  2  1  0
 4 -3 -2 -1  0
 4 -3 -2 -1  0
-4 -3 -2  1  0
 4 -3 -2  1  0
-4  3 -2  1  0
-4  3  2 -1  0
 4 -3 -2 -1  0
 4 -3 -2  1  0
-4 -3  2  1  0
-4 -3 -2  1  0
-4  3  2  1  0
 4 -3 -2 -1  0
 4 -3 -2 -1  0
-4 -3 -2  1  0
-4 -3  2 -1  0
-4  3  2 -1  0
-4  3 -2 -1  0
-4 -3  2 -1  0
-4  3 -2  1  0
-4 -3  2  1  0
 4 -3 -2 -1  0
-4 -3  2 -1  0
 4 -3 -2 -1  0
-4 -3 -2  1  0
-4 -3  2 -1  0
 4 -3 -2  1  0
 4 -3 -2  1  0
 4 -3 -2 -1  0
-4 -3  2 -1  0
 4 -3 -2 -1  0
-4 -3 -2  1  0
-4 -3  2 -1  0
 4 -3 -2  1  0
-4 -3 -2  1  0
 4 -3 -2 -1  0
 4 -3 -2  1  0
 4 -3 -2  1  0
 4 -3 -2 -1  0
-4 -3  2 -1  0
 4 -3 -2 -1  0
 4 -3 -2  1  0
 4 -3 -2 -1  0
 4 -3 -2 -1  0
-4  3  2 -1  0
-4  3  2  1  0
 4 -3 -2 -1  0
 4 -3 -2 -1  0
-4  3  2  1  0
-4  3  2 -1  0
-4  3  2  1  0
 4 -3 -2 -1  0
-4 -3  2  1  0
-4 -3 -2  1  0
 4 -3 -2 -1  0
-4  3  2 -1  0
-4 -3  2 -1  0
-4  3 -2  1  0
 4 -3 -2 -1  0
-4  3  2  1  0
-4  3  2 -1  0
-4  3  2  1  0
 4 -3 -2 -1  0
-4 -3  2  1  0
 4 -3 -2 -1  0
-4 -3 -2  1  0
-4  3  2  1  0
-4  3  2 -1  0
-4 -3  2 -1  0
-4 -3 -2  1  0
-4 -3  2 -1  0
-4  3  2  1  0
 4 -3 -2 -1  0
-4  3  2  1  0
 4 -3 -2 -1  0
-4 -3  2 -1  0
-4 -3 -2  1  0
-4 -3 -2  1  0
-4 -3  2 -1  0
-4  3  2  1  0
 4 -3 -2 -1  0
-4  3  2  1  0
 4 -3 -2 -1  0
-4  3 -2  1  0
-4  3  2 -1  0
-4 -3  2 -1  0
 4 -3 -2 -1  0
 4 -3 -2  1  0
-4 -3  2  1  0
-4 -3 -2  1  0
-4 -3  2 -1  0
-4  3  2  1  0
 4 -3 -2 -1  0
-4  3  2  1  0
 4 -3 -2 -1  0
-4  3  2 -1  0
-4  3 -2 -1  0
 4 -3 -2  1  0
-4 -3  2 -1  0
-4  3 -2  1  0
-4 -3  2  1  0
 4 -3 -2  1  0
 4 -3 -2 -1  0
-4 -3  2 -1  0
-4  3  2  1  0
 4 -3 -2 -1  0
 4 -3 -2  1  0
 4 -3 -2 -1  0
-4 -3  2 -1  0
-4  3  2  1  0
-4 -3 -2  1  0
 4 -3 -2  1  0
 4 -3 -2  1  0
-4 -3  2 -1  0
-4  3  2 -1  0
-4  3  2  1  0
 4 -3 -2 -1  0
-4 -3  2 -1  0
 4 -3 -2  1  0
-4  3  2  1  0
 4 -3 -2 -1  0
 4 -3 -2 -1  0
-4  3  2  1  0
-4  3  2 -1  0
-4  3  2 -1  0
-4  3  2  1  0
 4 -3 -2 -1  0
-4 -3  2 -1  0
 4 -3 -2 -1  0
-4  3  2  1  0
-4  3  2 -1  0
-4  3  2  1  0
 4 -3 -2 -1  0
-4 -3  2 -1  0
-4 -3  2  1  0
-4 -3 -2  1  0
 4 -3 -2 -1  0
-4 -3  2 -1  0
-4  3 -2  1  0
 4 -3 -2 -1  0
-4  3  2  1  0
-4  3  2 -1  0
 4 -3 -2 -1  0
-4 -3  2 -1  0
-4 -3  2  1  0
 4 -3 -2 -1  0
-4 -3 -2  1  0
-4  3  2 -1  0
-4 -3  2 -1  0
-4 -3 -2  1  0
-4 -3  2 -1  0
 4 -3 -2 -1  0
-4  3  2 -1  0
-4  3  2  1  0
 4 -3 -2 -1  0
-4 -3  2 -1  0
-4 -3  2 -1  0
-4 -3 -2  1  0
-4 -3 -2  1  0
-4 -3  2 -1  0
-4  3  2  1  0
 4 -3 -2 -1  0
-4  3  2 -1  0
-4  3  2  1  0
-4 -3  2 -1  0
-4  3 -2  1  0
-4  3  2 -1  0
-4 -3  2 -1  0
 4 -3 -2  1  0
-4 -3  2  1  0
-4 -3 -2  1  0
-4 -3  2 -1  0
-4  3  2  1  0
-4  3  2 -1  0
-4  3  2  1  0
 4 -3 -2 -1  0
-4  3  2 -1  0
-4  3 -2 -1  0
 4 -3 -2  1  0
-4  3 -2  1  0
-4 -3  2  1  0
 4 -3 -2  1  0
 4 -3 -2 -1  0
-4  3  2 -1  0
-4  3  2  1  0
 4 -3 -2 -1  0
-4 -3  2 -1  0
 4 -3 -2  1  0
 4 -3 -2 -1  0
-4 -3  2 -1  0
-4  3  2 -1  0
-4  3  2  1  0
 4 -3 -2 -1  0
-4 -3  2 -1  0
-4 -3 -2  1  0
 4 -3 -2 -1  0
 4 -3 -2  1  0
 4 -3 -2  1  0
 4 -3 -2 -1  0
-4 -3  2 -1  0
-4 -3  2 -1  0
-4  3  2 -1  0
 4 -3 -2  1  0
-4  3 -2  1  0
 4 -3 -2  1  0
-4  3  2  1  0
 4 -3 -2 -1  0
-4 -3  2 -1  0
 4 -3 -2 -1  0
-4  3 -2  1  0
-4 -3  2 -1  0
-4  3  2 -1  0
 4 -3 -2  1  0
-4  3 -2  1  0
-4 -3  2 -1  0
 4 -3 -2 -1  0
-4  3 -2  1  0
-4  3  2 -1  0
 4 -3 -2  1  0
-4  3 -2  1  0
-4 -3  2  1  0
-4 -3 -2  1  0
 4 -3 -2 -1  0
-4  3  2 -1  0
-4  3 -2  1  0
 4 -3 -2 -1  0
-4  3 -2  1  0
-4 -3  2 -1  0
 4 -3 -2  1  0
-4  3 -2  1  0
-4 -3  2  1  0
 4 -3 -2 -1  0
-4 -3 -2  1  0
-4  3  2  1  0
-4 -3  2 -1  0
 4 -3 -2  1  0
-4 -3  2 -1  0
-4 -3  2  1  0
-4 -3 -2  1  0
-4 -3  2 -1  0
-4  3  2 -1  0
 4 -3 -2  1  0
-4  3 -2  1  0
-4 -3  2 -1  0
-4 -3 -2  1  0
-4  3  2 -1  0
 4 -3 -2  1  0
-4 -3  2 -1  0
-4 -3  2  1  0
-4 -3 -2  1  0
-4 -3  2 -1  0
-4  3  2 -1  0
-4  3 -2  1  0
-4  3 -2  1  0
-4  3  2 -1  0
-4 -3  2 -1  0
 4 -3 -2 -1  0
-4 -3  2  1  0
-4  3  2 -1  0
-4 -3  2 -1  0
-4 -3  2  1  0
-4 -3 -2  1  0
-4 -3  2 -1  0
-4  3  2 -1  0
 4 -3 -2  1  0
-4  3  2 -1  0
-4  3 -2 -1  0
 4 -3 -2  1  0
-4 -3  2 -1  0
-4 -3  2  1  0
 4 -3 -2  1  0
-4 -3  2  1  0
-4 -3  2 -1  0
-4  3  2 -1  0
 4 -3 -2  1  0
-4  3 -2  1  0
-4  3 -2  1  0
 4 -3 -2  1  0
-4 -3  2  1  0
-4 -3  2 -1  0
-4  3  2 -1  0
 4 -3 -2  1  0
-4  3 -2  1  0
-4 -3 -2  1  0
 4 -3 -2 -1  0
 4 -3 -2  1  0
-4  3 -2  1  0
 4 -3 -2  1  0
-4 -3  2  1  0
-4 -3  2 -1  0
-4 -3  2  1  0
 4 -3 -2  1  0
 4 -3 -2  1  0
-4  3  2  1  0
-4 -3  2 -1  0
-4  3 -2  1  0
 4 -3 -2 -1  0
-4 -3  2 -1  0
-4 -3  2  1  0
 4 -3 -2  1  0
-4 -3  2 -1  0
 4 -3 -2 -1  0
-4  3 -2  1  0
 4 -3 -2 -1  0
-4 -3  2 -1  0
-4 -3  2  1  0
 4 -3 -2  1  0
-4 -3  2  1  0
-4 -3 -2  1  0
 4 -3 -2 -1  0
-4  3  2 -1  0
-4 -3  2 -1  0
-4  3 -2  1  0
-4 -3  2 -1  0
 4 -3 -2 -1  0
-4  3 -2  1  0
 4 -3 -2 -1  0
-4 -3  2  1  0
 4 -3 -2  1  0
-4 -3  2  1  0
 4 -3 -2 -1  0
-4 -3 -2  1  0
-4  3  2  1  0
-4  3  2 -1  0
-4  3  2 -1  0
 4 -3 -2  1  0
-4 -3  2  1  0
-4 -3 -2  1  0
 4 -3 -2 -1  0
-4 -3  2 -1  0
-4 -3  2  1  0
 4 -3 -2  1  0
-4 -3  2 -1  0
-4 -3 -2  1  0
-4  3  2 -1  0
 4 -3 -2  1  0
-4 -3  2 -1  0
-4 -3  2  1  0
-4 -3 -2  1  0
 4 -3 -2 -1  0
-4 -3  2 -1  0
 4 -3 -2  1  0
-4  3 -2  1  0
-4  3  2 -1  0
-4 -3  2 -1  0
 4 -3 -2 -1  0
 4 -3 -2  1  0
-4  3  2 -1  0
 4 -3 -2  1  0
-4 -3  2 -1  0
-4 -3 -2  1  0
 4 -3 -2 -1  0
-4 -3  2 -1  0
-4 -3  2  1  0
 4 -3 -2  1  0
-4  3  2 -1  0
-4  3 -2 -1  0
 4 -3 -2  1  0
-4 -3  2 -1  0
-4  3 -2  1  0
-4 -3  2  1  0
-4  3 -2  1  0
 4 -3 -2  1  0
-4 -3  2  1  0
 4 -3 -2 -1  0
-4 -3  2 -1  0
-4 -3  2  1  0
 4 -3 -2  1  0
-4  3 -2  1  0
 4 -3 -2  1  0
-4 -3  2  1  0
 4 -3 -2 -1  0
-4 -3  2 -1  0
-4 -3  2  1  0
-4 -3 -2  1  0
 4 -3 -2 -1  0
-4  3 -2  1  0
-4 -3  2  1  0
-4  3 -2  1  0
-4 -3 -2  1  0
-4 -3  2  1  0
 4 -3 -2  1  0
-4  3  2  1  0
 4 -3 -2 -1  0
-4 -3  2 -1  0
 4 -3 -2 -1  0
-4  3 -2  1  0
-4  3 -2  1  0
-4 -3 -2  1  0
-4 -3  2  1  0
-4 -3  2 -1  0
 4 -3 -2 -1  0
-4  3 -2  1  0
-4 -3 -2  1  0
-4 -3  2  1  0
-4 -3  2  1  0
-4 -3 -2  1  0
 4 -3 -2 -1  0
-4  3  2 -1  0
-4 -3  2 -1  0
-4 -3  2 -1  0
 4 -3 -2 -1  0
-4  3 -2  1  0
-4 -3 -2  1  0
-4 -3  2  1  0
-4 -3  2  1  0
 4 -3 -2 -1  0
-4 -3 -2  1  0
-4  3  2  1  0
-4  3  2 -1  0
-4 -3  2 -1  0
-4  3  2 -1  0
 4 -3 -2  1  0
-4 -3  2 -1  0
-4 -3  2  1  0
-4 -3 -2  1  0
-4  3 -2  1  0
-4 -3  2  1  0
-4 -3  2 -1  0
-4  3  2 -1  0
 4 -3 -2  1  0
-4 -3  2 -1  0
-4 -3  2  1  0
-4  3 -2  1  0
-4 -3 -2  1  0
-4 -3  2  1  0
-4  3 -2  1  0
-4  3  2 -1  0
-4 -3  2 -1  0
 4 -3 -2 -1  0
 4 -3 -2  1  0
-4 -3  2  1  0
-4  3  2 -1  0
 4 -3 -2  1  0
-4 -3  2 -1  0
-4 -3  2  1  0
-4 -3 -2  1  0
-4  3 -2  1  0
-4 -3 -2  1  0
-4  3  2 -1  0
-4  3 -2 -1  0
 4 -3 -2  1  0
-4 -3  2 -1  0
-4  3 -2  1  0
-4  3 -2  1  0
 4 -3 -2  1  0
-4  3 -2  1  0
-4 -3 -2  1  0
-4 -3  2  1  0
-4  3 -2  1  0
 4 -3 -2  1  0
-4 -3  2  1  0
-4  3 -2  1  0
-4 -3 -2  1  0
-4 -3  2  1  0
-4 -3 -2  1  0
 4 -3 -2 -1  0
 4 -3 -2  1  0
-4  3 -2  1  0
 4 -3 -2  1  0
-4 -3  2  1  0
